c turning on binary mode checking
c parsing input formula with 259840 variables and 1039929 clauses
c finished parsing, read 2950757 bytes from proof file
c detected empty clause; start verification via backward checking
c 2822 of 1039929 clauses in core                            
c 868 of 120850 lemmas in core using 29763 resolution steps
c 0 RAT lemmas in core; 128 redundant literals in core lemmas
s VERIFIED
c verification time: 1.094 seconds
